0 33 40
1 39 41
2 35 40
3 37 41
4 32 39
5 34 38
6 30 37
7 22 37
8 32 35
9 19 31
10 23 30
11 29 33
12 28 30
13 29 32
14 26 29
15 21 28
16 12 26
17 20 25
18 17 24
19 18 22
20 16 21
21 18 19
22 15 17
23 9 14
24 9 14
25 10 11
26 10 11
27 5 11
28 8 9
29 2 8
30 5 8
31 6 9
32 4 8
33 2 9
34 6 8
35 5 6
36 5 4
37 4 4
38 2 3
39 4 4
40 2 3
41 3 2
42 2 1
43 3 2
44 1 1
45 1 1
46 1 0
47 2 1
48 1 0
49 1 1

